p edge 21 37
e 1 4
e 1 7
e 1 9
e 1 11
e 1 12
e 1 16
e 2 4
e 2 8
e 2 14
e 2 16
e 2 18
e 3 4
e 3 7
e 3 8
e 3 10
e 3 15
e 4 7
e 4 12
e 5 7
e 5 8
e 5 10
e 5 14
e 5 17
e 6 9
e 6 13
e 7 17
e 8 13
e 8 18
e 9 11
e 9 12
e 9 20
e 11 12
e 11 16
e 11 21
e 12 21
e 13 14
e 14 19
